c graph1
p edge 10 44
e 1 10
e 2 9
e 3 10
e 4 1
e 5 8
e 6 7
e 7 5
e 8 9
e 9 10
e 10 4
e 10 6
e 6 5
e 1 2
e 9 6
e 6 2
e 10 5
e 5 3
e 8 7
e 4 8
e 3 7
e 9 7
e 1 9
e 7 2
e 1 8
e 4 7
e 3 4
e 10 2
e 9 4
e 3 8
e 4 2
e 2 3
e 10 7
e 6 8
e 9 3
e 4 6
e 2 8
e 4 5
e 5 9
e 2 5
e 3 6
e 8 10
e 1 3
e 1 6
e 5 1
